c
c start with comments
c
p cnf 21 13
-12 -9 20 15 -17 0
-22 -19 21 15 0
-21 -8 -24 0
-19 7 20 -24 -24 -18 0
-14 -6 11 -2 0
-19 10 22 -12 11 -12 0
-9 -14 -4 -18 3 -19 0
-20 25 0
8 11 20 0
-3 6 0
14 24 0
10 8 -14 -22 0
-6 -5 -21 0